6264
7032
7518
7924
8251
8476
8660
8798
8881
8980
9054
9106
9127
9154
9179
9193
9208
9219
9223
9227
9232
9237
9240
9244
9247
9248
9249
9250
9250
9250
9251
9251
9252
9253
9253
9254
9254
9255
9255
9255
9255
9255
9255
9255
9255
9255
9255
9255
9255
9255
9255
9255
9255
9255
9255
9255
9255
9255
9255
9255
9255
9255
9255
9255
9255
9255
9255
9255
9255
9255
9255
9255
9255
9255
9255
9255
9255
9255
9255
9255
9255
9255
9255
9255
9255
9255
9255
9255
9255
9255
9255
9255
9255
9255
9255
9255
9255
9255
9255
